data;

param num_top:=3;

#nodes and edges of the physical network
param n := 10;

set E := (1,2) (1,3) (1,7) (2,4) (2,7) (3,5) (4,8) (5,6) (5,7) (6,7) (6,9) (7,8) (7,9) (8,10) (9,10) ;

#nodes and edges of the virtual networks
set Nl[1] := 2 8 5 7 ;
set Nl[2] := 1 3 9 5 ;
set Nl[3] := 6 1 8 2 ;

set El[1] := (2,8) (5,8) (5,7) (2,7) (2,5) (7,8) ;
set El[2] := (1,3) (3,9) (5,9) (1,5) (1,9) (3,5) ;
set El[3] := (1,6) (1,8) (2,8) (2,6) (1,2) (6,8) ;
